p cnf 200 1110
-101 -88 0
-101 82 0
-101 3 0
-101 93 0
-101 -81 0
-101 -50 0
-101 -63 0
-101 4 0
-101 25 0
-101 -53 0
101 88 -82 -3 -93 81 50 63 -4 -25 53 0
-102 53 0
-102 21 0
-102 -30 0
-102 100 0
-102 -15 0
-102 -34 0
-102 -6 0
-102 -20 0
-102 2 0
-102 25 0
102 -53 -21 30 -100 15 34 6 20 -2 -25 0
-103 36 0
-103 -41 0
-103 -5 0
-103 -91 0
-103 67 0
-103 -70 0
-103 -55 0
-103 80 0
-103 10 0
-103 6 0
103 -36 41 5 91 -67 70 55 -80 -10 -6 0
-104 -68 0
-104 52 0
-104 -69 0
-104 85 0
-104 -72 0
-104 12 0
-104 -42 0
-104 -23 0
-104 -7 0
-104 1 0
104 68 -52 69 -85 72 -12 42 23 7 -1 0
-105 -32 0
-105 3 0
-105 -41 0
-105 100 0
-105 59 0
-105 -93 0
-105 46 0
-105 -31 0
-105 -9 0
-105 -20 0
105 32 -3 41 -100 -59 93 -46 31 9 20 0
-106 47 0
-106 26 0
-106 66 0
-106 24 0
-106 3 0
-106 -23 0
-106 -56 0
-106 -65 0
-106 78 0
-106 -17 0
106 -47 -26 -66 -24 -3 23 56 65 -78 17 0
-107 15 0
-107 -26 0
-107 77 0
-107 -97 0
-107 -6 0
-107 -58 0
-107 -51 0
-107 35 0
-107 -68 0
-107 -13 0
107 -15 26 -77 97 6 58 51 -35 68 13 0
-108 86 0
-108 30 0
-108 -52 0
-108 -28 0
-108 -55 0
-108 -19 0
-108 4 0
-108 40 0
-108 -33 0
-108 -13 0
108 -86 -30 52 28 55 19 -4 -40 33 13 0
-109 61 0
-109 42 0
-109 82 0
-109 7 0
-109 33 0
-109 18 0
-109 35 0
-109 -20 0
-109 -98 0
-109 -59 0
109 -61 -42 -82 -7 -33 -18 -35 20 98 59 0
-110 -60 0
-110 -42 0
-110 46 0
-110 84 0
-110 45 0
-110 95 0
-110 -49 0
-110 -37 0
-110 62 0
-110 87 0
110 60 42 -46 -84 -45 -95 49 37 -62 -87 0
101 102 103 104 105 106 107 108 109 110 0
-111 -47 0
-111 67 0
-111 94 0
-111 18 0
-111 17 0
-111 -95 0
-111 50 0
-111 -24 0
-111 48 0
-111 -37 0
111 47 -67 -94 -18 -17 95 -50 24 -48 37 0
-112 -50 0
-112 31 0
-112 82 0
-112 -63 0
-112 -15 0
-112 89 0
-112 74 0
-112 85 0
-112 12 0
-112 -44 0
112 50 -31 -82 63 15 -89 -74 -85 -12 44 0
-113 87 0
-113 56 0
-113 -84 0
-113 91 0
-113 -81 0
-113 -62 0
-113 -59 0
-113 -17 0
-113 29 0
-113 -24 0
113 -87 -56 84 -91 81 62 59 17 -29 24 0
-114 -45 0
-114 -60 0
-114 -24 0
-114 -75 0
-114 54 0
-114 43 0
-114 64 0
-114 26 0
-114 30 0
-114 87 0
114 45 60 24 75 -54 -43 -64 -26 -30 -87 0
-115 41 0
-115 -49 0
-115 -17 0
-115 25 0
-115 97 0
-115 43 0
-115 92 0
-115 30 0
-115 -64 0
-115 53 0
115 -41 49 17 -25 -97 -43 -92 -30 64 -53 0
-116 86 0
-116 -17 0
-116 -84 0
-116 76 0
-116 99 0
-116 20 0
-116 18 0
-116 -82 0
-116 12 0
-116 87 0
116 -86 17 84 -76 -99 -20 -18 82 -12 -87 0
-117 -22 0
-117 53 0
-117 16 0
-117 31 0
-117 10 0
-117 -2 0
-117 1 0
-117 48 0
-117 -76 0
-117 -34 0
117 22 -53 -16 -31 -10 2 -1 -48 76 34 0
-118 60 0
-118 54 0
-118 -18 0
-118 68 0
-118 -76 0
-118 -35 0
-118 -57 0
-118 -25 0
-118 -7 0
-118 -75 0
118 -60 -54 18 -68 76 35 57 25 7 75 0
-119 -23 0
-119 94 0
-119 -10 0
-119 30 0
-119 -22 0
-119 69 0
-119 -13 0
-119 -1 0
-119 44 0
-119 -40 0
119 23 -94 10 -30 22 -69 13 1 -44 40 0
-120 -96 0
-120 69 0
-120 85 0
-120 8 0
-120 87 0
-120 78 0
-120 -46 0
-120 -62 0
-120 -63 0
-120 -77 0
120 96 -69 -85 -8 -87 -78 46 62 63 77 0
111 112 113 114 115 116 117 118 119 120 0
-121 24 0
-121 -21 0
-121 50 0
-121 -70 0
-121 93 0
-121 -42 0
-121 -74 0
-121 -1 0
-121 78 0
-121 5 0
121 -24 21 -50 70 -93 42 74 1 -78 -5 0
-122 -93 0
-122 52 0
-122 -95 0
-122 30 0
-122 -6 0
-122 -47 0
-122 -14 0
-122 -45 0
-122 -42 0
-122 75 0
122 93 -52 95 -30 6 47 14 45 42 -75 0
-123 3 0
-123 -92 0
-123 -68 0
-123 43 0
-123 88 0
-123 -45 0
-123 -89 0
-123 -74 0
-123 62 0
-123 13 0
123 -3 92 68 -43 -88 45 89 74 -62 -13 0
-124 -72 0
-124 18 0
-124 34 0
-124 50 0
-124 -79 0
-124 -9 0
-124 -57 0
-124 65 0
-124 47 0
-124 31 0
124 72 -18 -34 -50 79 9 57 -65 -47 -31 0
-125 68 0
-125 47 0
-125 79 0
-125 74 0
-125 60 0
-125 4 0
-125 -93 0
-125 -56 0
-125 -90 0
-125 -11 0
125 -68 -47 -79 -74 -60 -4 93 56 90 11 0
-126 87 0
-126 -8 0
-126 95 0
-126 -63 0
-126 -66 0
-126 -41 0
-126 49 0
-126 72 0
-126 34 0
-126 -93 0
126 -87 8 -95 63 66 41 -49 -72 -34 93 0
-127 80 0
-127 78 0
-127 52 0
-127 -47 0
-127 -33 0
-127 -56 0
-127 -39 0
-127 53 0
-127 -98 0
-127 66 0
127 -80 -78 -52 47 33 56 39 -53 98 -66 0
-128 -7 0
-128 2 0
-128 48 0
-128 -72 0
-128 52 0
-128 -55 0
-128 -50 0
-128 20 0
-128 -67 0
-128 -74 0
128 7 -2 -48 72 -52 55 50 -20 67 74 0
-129 -32 0
-129 -91 0
-129 98 0
-129 90 0
-129 45 0
-129 83 0
-129 -44 0
-129 -28 0
-129 -99 0
-129 -34 0
129 32 91 -98 -90 -45 -83 44 28 99 34 0
-130 -79 0
-130 -77 0
-130 -91 0
-130 21 0
-130 52 0
-130 36 0
-130 -30 0
-130 -53 0
-130 -6 0
-130 44 0
130 79 77 91 -21 -52 -36 30 53 6 -44 0
121 122 123 124 125 126 127 128 129 130 0
-131 78 0
-131 89 0
-131 67 0
-131 27 0
-131 1 0
-131 66 0
-131 -22 0
-131 -81 0
-131 77 0
-131 -2 0
131 -78 -89 -67 -27 -1 -66 22 81 -77 2 0
-132 62 0
-132 73 0
-132 6 0
-132 42 0
-132 7 0
-132 -36 0
-132 -27 0
-132 -61 0
-132 -16 0
-132 2 0
132 -62 -73 -6 -42 -7 36 27 61 16 -2 0
-133 12 0
-133 99 0
-133 -18 0
-133 -65 0
-133 61 0
-133 23 0
-133 82 0
-133 -51 0
-133 33 0
-133 66 0
133 -12 -99 18 65 -61 -23 -82 51 -33 -66 0
-134 38 0
-134 -71 0
-134 -44 0
-134 2 0
-134 -11 0
-134 59 0
-134 72 0
-134 63 0
-134 -9 0
-134 -95 0
134 -38 71 44 -2 11 -59 -72 -63 9 95 0
-135 44 0
-135 -33 0
-135 -68 0
-135 76 0
-135 -60 0
-135 63 0
-135 45 0
-135 -26 0
-135 98 0
-135 48 0
135 -44 33 68 -76 60 -63 -45 26 -98 -48 0
-136 -95 0
-136 23 0
-136 93 0
-136 38 0
-136 81 0
-136 92 0
-136 -65 0
-136 89 0
-136 -2 0
-136 66 0
136 95 -23 -93 -38 -81 -92 65 -89 2 -66 0
-137 33 0
-137 -68 0
-137 -35 0
-137 90 0
-137 -48 0
-137 92 0
-137 43 0
-137 -96 0
-137 -72 0
-137 -75 0
137 -33 68 35 -90 48 -92 -43 96 72 75 0
-138 51 0
-138 20 0
-138 -97 0
-138 54 0
-138 2 0
-138 16 0
-138 -90 0
-138 -50 0
-138 -26 0
-138 68 0
138 -51 -20 97 -54 -2 -16 90 50 26 -68 0
-139 50 0
-139 -82 0
-139 -80 0
-139 71 0
-139 88 0
-139 2 0
-139 39 0
-139 -64 0
-139 -15 0
-139 -5 0
139 -50 82 80 -71 -88 -2 -39 64 15 5 0
-140 -5 0
-140 22 0
-140 98 0
-140 80 0
-140 60 0
-140 70 0
-140 36 0
-140 -49 0
-140 -42 0
-140 64 0
140 5 -22 -98 -80 -60 -70 -36 49 42 -64 0
131 132 133 134 135 136 137 138 139 140 0
-141 30 0
-141 -22 0
-141 -93 0
-141 86 0
-141 -48 0
-141 8 0
-141 69 0
-141 -13 0
-141 -14 0
-141 51 0
141 -30 22 93 -86 48 -8 -69 13 14 -51 0
-142 -89 0
-142 27 0
-142 -15 0
-142 -1 0
-142 -36 0
-142 53 0
-142 57 0
-142 45 0
-142 -84 0
-142 21 0
142 89 -27 15 1 36 -53 -57 -45 84 -21 0
-143 -81 0
-143 35 0
-143 6 0
-143 45 0
-143 -65 0
-143 20 0
-143 94 0
-143 -4 0
-143 -84 0
-143 -12 0
143 81 -35 -6 -45 65 -20 -94 4 84 12 0
-144 -33 0
-144 -37 0
-144 29 0
-144 -30 0
-144 -85 0
-144 42 0
-144 60 0
-144 -69 0
-144 71 0
-144 10 0
144 33 37 -29 30 85 -42 -60 69 -71 -10 0
-145 -99 0
-145 30 0
-145 -3 0
-145 95 0
-145 58 0
-145 -67 0
-145 50 0
-145 72 0
-145 63 0
-145 37 0
145 99 -30 3 -95 -58 67 -50 -72 -63 -37 0
-146 -15 0
-146 3 0
-146 -26 0
-146 75 0
-146 87 0
-146 -19 0
-146 -73 0
-146 -20 0
-146 -4 0
-146 -42 0
146 15 -3 26 -75 -87 19 73 20 4 42 0
-147 72 0
-147 40 0
-147 93 0
-147 -44 0
-147 -65 0
-147 -27 0
-147 51 0
-147 -86 0
-147 -13 0
-147 -8 0
147 -72 -40 -93 44 65 27 -51 86 13 8 0
-148 29 0
-148 92 0
-148 50 0
-148 71 0
-148 1 0
-148 79 0
-148 46 0
-148 -43 0
-148 -68 0
-148 34 0
148 -29 -92 -50 -71 -1 -79 -46 43 68 -34 0
-149 89 0
-149 -52 0
-149 77 0
-149 -21 0
-149 43 0
-149 -53 0
-149 42 0
-149 85 0
-149 -50 0
-149 -15 0
149 -89 52 -77 21 -43 53 -42 -85 50 15 0
-150 -41 0
-150 60 0
-150 97 0
-150 23 0
-150 -28 0
-150 59 0
-150 -3 0
-150 35 0
-150 -49 0
-150 -14 0
150 41 -60 -97 -23 28 -59 3 -35 49 14 0
141 142 143 144 145 146 147 148 149 150 0
-151 -60 0
-151 92 0
-151 20 0
-151 48 0
-151 -55 0
-151 22 0
-151 -36 0
-151 -7 0
-151 -30 0
-151 70 0
151 60 -92 -20 -48 55 -22 36 7 30 -70 0
-152 -87 0
-152 -26 0
-152 1 0
-152 -90 0
-152 -69 0
-152 -47 0
-152 27 0
-152 -16 0
-152 21 0
-152 58 0
152 87 26 -1 90 69 47 -27 16 -21 -58 0
-153 -16 0
-153 -94 0
-153 100 0
-153 79 0
-153 57 0
-153 -92 0
-153 42 0
-153 -75 0
-153 -47 0
-153 73 0
153 16 94 -100 -79 -57 92 -42 75 47 -73 0
-154 -48 0
-154 -74 0
-154 23 0
-154 -18 0
-154 -28 0
-154 90 0
-154 51 0
-154 9 0
-154 -71 0
-154 87 0
154 48 74 -23 18 28 -90 -51 -9 71 -87 0
-155 23 0
-155 -11 0
-155 -82 0
-155 37 0
-155 61 0
-155 -70 0
-155 79 0
-155 20 0
-155 45 0
-155 -87 0
155 -23 11 82 -37 -61 70 -79 -20 -45 87 0
-156 -64 0
-156 10 0
-156 68 0
-156 -60 0
-156 77 0
-156 55 0
-156 -25 0
-156 50 0
-156 -96 0
-156 -95 0
156 64 -10 -68 60 -77 -55 25 -50 96 95 0
-157 79 0
-157 -84 0
-157 -56 0
-157 -91 0
-157 -88 0
-157 -46 0
-157 -31 0
-157 -45 0
-157 68 0
-157 63 0
157 -79 84 56 91 88 46 31 45 -68 -63 0
-158 37 0
-158 55 0
-158 -62 0
-158 -74 0
-158 -19 0
-158 67 0
-158 61 0
-158 64 0
-158 77 0
-158 93 0
158 -37 -55 62 74 19 -67 -61 -64 -77 -93 0
-159 100 0
-159 -96 0
-159 -83 0
-159 46 0
-159 -70 0
-159 65 0
-159 88 0
-159 -55 0
-159 42 0
-159 27 0
159 -100 96 83 -46 70 -65 -88 55 -42 -27 0
-160 18 0
-160 31 0
-160 -4 0
-160 65 0
-160 -87 0
-160 56 0
-160 -17 0
-160 -68 0
-160 -60 0
-160 79 0
160 -18 -31 4 -65 87 -56 17 68 60 -79 0
151 152 153 154 155 156 157 158 159 160 0
-161 88 0
-161 -74 0
-161 24 0
-161 -8 0
-161 84 0
-161 57 0
-161 -36 0
-161 -1 0
-161 -40 0
-161 -70 0
161 -88 74 -24 8 -84 -57 36 1 40 70 0
-162 9 0
-162 -87 0
-162 -71 0
-162 62 0
-162 -56 0
-162 -68 0
-162 -72 0
-162 18 0
-162 -13 0
-162 -35 0
162 -9 87 71 -62 56 68 72 -18 13 35 0
-163 -7 0
-163 73 0
-163 36 0
-163 -43 0
-163 61 0
-163 -52 0
-163 68 0
-163 -18 0
-163 42 0
-163 57 0
163 7 -73 -36 43 -61 52 -68 18 -42 -57 0
-164 91 0
-164 -14 0
-164 -58 0
-164 -41 0
-164 75 0
-164 2 0
-164 83 0
-164 -13 0
-164 50 0
-164 -82 0
164 -91 14 58 41 -75 -2 -83 13 -50 82 0
-165 92 0
-165 20 0
-165 70 0
-165 -10 0
-165 58 0
-165 -78 0
-165 -30 0
-165 -50 0
-165 49 0
-165 18 0
165 -92 -20 -70 10 -58 78 30 50 -49 -18 0
-166 -47 0
-166 -56 0
-166 58 0
-166 -97 0
-166 -83 0
-166 -52 0
-166 -20 0
-166 99 0
-166 25 0
-166 -23 0
166 47 56 -58 97 83 52 20 -99 -25 23 0
-167 77 0
-167 93 0
-167 89 0
-167 -32 0
-167 53 0
-167 -41 0
-167 -88 0
-167 57 0
-167 51 0
-167 4 0
167 -77 -93 -89 32 -53 41 88 -57 -51 -4 0
-168 86 0
-168 -66 0
-168 46 0
-168 12 0
-168 -27 0
-168 73 0
-168 53 0
-168 -49 0
-168 58 0
-168 84 0
168 -86 66 -46 -12 27 -73 -53 49 -58 -84 0
-169 -63 0
-169 -20 0
-169 -44 0
-169 93 0
-169 -15 0
-169 62 0
-169 -77 0
-169 97 0
-169 12 0
-169 -21 0
169 63 20 44 -93 15 -62 77 -97 -12 21 0
-170 72 0
-170 52 0
-170 81 0
-170 -91 0
-170 71 0
-170 42 0
-170 21 0
-170 56 0
-170 13 0
-170 28 0
170 -72 -52 -81 91 -71 -42 -21 -56 -13 -28 0
161 162 163 164 165 166 167 168 169 170 0
-171 -16 0
-171 -20 0
-171 -53 0
-171 -71 0
-171 50 0
-171 15 0
-171 75 0
-171 -3 0
-171 -58 0
-171 -82 0
171 16 20 53 71 -50 -15 -75 3 58 82 0
-172 -76 0
-172 77 0
-172 -19 0
-172 -5 0
-172 15 0
-172 70 0
-172 8 0
-172 -51 0
-172 -85 0
-172 65 0
172 76 -77 19 5 -15 -70 -8 51 85 -65 0
-173 7 0
-173 92 0
-173 -1 0
-173 -61 0
-173 56 0
-173 -46 0
-173 84 0
-173 68 0
-173 6 0
-173 62 0
173 -7 -92 1 61 -56 46 -84 -68 -6 -62 0
-174 34 0
-174 37 0
-174 52 0
-174 32 0
-174 2 0
-174 -94 0
-174 -25 0
-174 50 0
-174 -5 0
-174 -21 0
174 -34 -37 -52 -32 -2 94 25 -50 5 21 0
-175 28 0
-175 -1 0
-175 51 0
-175 -91 0
-175 84 0
-175 36 0
-175 68 0
-175 -92 0
-175 -17 0
-175 86 0
175 -28 1 -51 91 -84 -36 -68 92 17 -86 0
-176 40 0
-176 96 0
-176 48 0
-176 -3 0
-176 -51 0
-176 -25 0
-176 94 0
-176 -23 0
-176 -13 0
-176 -66 0
176 -40 -96 -48 3 51 25 -94 23 13 66 0
-177 -73 0
-177 2 0
-177 -14 0
-177 37 0
-177 -82 0
-177 65 0
-177 67 0
-177 69 0
-177 41 0
-177 47 0
177 73 -2 14 -37 82 -65 -67 -69 -41 -47 0
-178 62 0
-178 -20 0
-178 75 0
-178 -69 0
-178 46 0
-178 -9 0
-178 6 0
-178 60 0
-178 -8 0
-178 22 0
178 -62 20 -75 69 -46 9 -6 -60 8 -22 0
-179 67 0
-179 -55 0
-179 -58 0
-179 19 0
-179 -38 0
-179 -25 0
-179 -88 0
-179 17 0
-179 14 0
-179 -75 0
179 -67 55 58 -19 38 25 88 -17 -14 75 0
-180 89 0
-180 -48 0
-180 10 0
-180 -91 0
-180 -26 0
-180 65 0
-180 -60 0
-180 17 0
-180 19 0
-180 -12 0
180 -89 48 -10 91 26 -65 60 -17 -19 12 0
171 172 173 174 175 176 177 178 179 180 0
-181 -33 0
-181 27 0
-181 23 0
-181 68 0
-181 -40 0
-181 -38 0
-181 97 0
-181 66 0
-181 -16 0
-181 65 0
181 33 -27 -23 -68 40 38 -97 -66 16 -65 0
-182 67 0
-182 -90 0
-182 26 0
-182 -48 0
-182 7 0
-182 -14 0
-182 28 0
-182 63 0
-182 -66 0
-182 4 0
182 -67 90 -26 48 -7 14 -28 -63 66 -4 0
-183 8 0
-183 29 0
-183 96 0
-183 11 0
-183 -12 0
-183 69 0
-183 -70 0
-183 -38 0
-183 -24 0
-183 4 0
183 -8 -29 -96 -11 12 -69 70 38 24 -4 0
-184 -62 0
-184 -44 0
-184 78 0
-184 84 0
-184 98 0
-184 18 0
-184 -22 0
-184 -38 0
-184 73 0
-184 43 0
184 62 44 -78 -84 -98 -18 22 38 -73 -43 0
-185 94 0
-185 -44 0
-185 -92 0
-185 -43 0
-185 71 0
-185 -52 0
-185 82 0
-185 35 0
-185 37 0
-185 19 0
185 -94 44 92 43 -71 52 -82 -35 -37 -19 0
-186 -27 0
-186 54 0
-186 -58 0
-186 -14 0
-186 -16 0
-186 -74 0
-186 -70 0
-186 7 0
-186 -41 0
-186 -87 0
186 27 -54 58 14 16 74 70 -7 41 87 0
-187 -68 0
-187 40 0
-187 93 0
-187 -11 0
-187 -35 0
-187 -75 0
-187 57 0
-187 12 0
-187 78 0
-187 72 0
187 68 -40 -93 11 35 75 -57 -12 -78 -72 0
-188 -53 0
-188 80 0
-188 65 0
-188 -22 0
-188 9 0
-188 -32 0
-188 -49 0
-188 93 0
-188 -20 0
-188 -28 0
188 53 -80 -65 22 -9 32 49 -93 20 28 0
-189 23 0
-189 97 0
-189 -16 0
-189 84 0
-189 56 0
-189 57 0
-189 11 0
-189 -86 0
-189 -6 0
-189 88 0
189 -23 -97 16 -84 -56 -57 -11 86 6 -88 0
-190 -43 0
-190 24 0
-190 45 0
-190 59 0
-190 -95 0
-190 46 0
-190 34 0
-190 -72 0
-190 -15 0
-190 98 0
190 43 -24 -45 -59 95 -46 -34 72 15 -98 0
181 182 183 184 185 186 187 188 189 190 0
-191 -32 0
-191 9 0
-191 -58 0
-191 49 0
-191 77 0
-191 -33 0
-191 24 0
-191 -38 0
-191 -23 0
-191 86 0
191 32 -9 58 -49 -77 33 -24 38 23 -86 0
-192 -48 0
-192 -1 0
-192 -30 0
-192 -50 0
-192 -62 0
-192 64 0
-192 -55 0
-192 16 0
-192 -42 0
-192 2 0
192 48 1 30 50 62 -64 55 -16 42 -2 0
-193 67 0
-193 71 0
-193 9 0
-193 -21 0
-193 12 0
-193 -94 0
-193 -50 0
-193 -76 0
-193 23 0
-193 26 0
193 -67 -71 -9 21 -12 94 50 76 -23 -26 0
-194 56 0
-194 80 0
-194 12 0
-194 -82 0
-194 46 0
-194 -15 0
-194 17 0
-194 -49 0
-194 41 0
-194 100 0
194 -56 -80 -12 82 -46 15 -17 49 -41 -100 0
-195 -50 0
-195 99 0
-195 44 0
-195 88 0
-195 90 0
-195 -48 0
-195 28 0
-195 -40 0
-195 80 0
-195 63 0
195 50 -99 -44 -88 -90 48 -28 40 -80 -63 0
-196 16 0
-196 -44 0
-196 -90 0
-196 100 0
-196 -86 0
-196 -28 0
-196 -25 0
-196 -66 0
-196 -95 0
-196 -18 0
196 -16 44 90 -100 86 28 25 66 95 18 0
-197 -38 0
-197 -1 0
-197 -18 0
-197 -90 0
-197 -94 0
-197 -100 0
-197 93 0
-197 -16 0
-197 -46 0
-197 -35 0
197 38 1 18 90 94 100 -93 16 46 35 0
-198 22 0
-198 86 0
-198 27 0
-198 74 0
-198 43 0
-198 47 0
-198 -67 0
-198 -40 0
-198 50 0
-198 84 0
198 -22 -86 -27 -74 -43 -47 67 40 -50 -84 0
-199 -10 0
-199 -72 0
-199 -21 0
-199 17 0
-199 65 0
-199 35 0
-199 -26 0
-199 1 0
-199 70 0
-199 -12 0
199 10 72 21 -17 -65 -35 26 -1 -70 12 0
-200 -64 0
-200 -81 0
-200 -10 0
-200 -18 0
-200 8 0
-200 28 0
-200 32 0
-200 -76 0
-200 -88 0
-200 58 0
200 64 81 10 18 -8 -28 -32 76 88 -58 0
191 192 193 194 195 196 197 198 199 200 0
